mixintcount/benchmarks/random_v2l/5_5_223.in
20 7
#	x1	x2	x3	x4	x5;		0 = Real; 1 = Integer
	1	1	1	1	1
1	-3	-3	2	4	2	-143
1	6	9	10	10	-4	97
1	2	-10	0	4	-8	-39
1	-2	0	0	0	-3	217
1	0	-10	-4	8	0	-215
1	-1	5	3	-9	-1	221
1	-3	-8	-10	-5	-9	187
1	-10	3	-7	-2	-5	-11
1	-3	3	4	5	-7	29
1	-8	1	10	-4	-3	143
1	1	0	0	0	0	223
1	-1	0	0	0	0	223
1	0	1	0	0	0	223
1	0	-1	0	0	0	223
1	0	0	1	0	0	223
1	0	0	-1	0	0	223
1	0	0	0	1	0	223
1	0	0	0	-1	0	223
1	0	0	0	0	1	223
1	0	0	0	0	-1	223
